newPerpect
   1.00000000000000
    47.6194000244000009    0.0000000000000000    0.0000000000000000
     0.0000000000000000    9.4694004059000001    0.0000000000000000
     0.0000000000000000    0.0000000000000000    5.8144001961000003
   O    Ca   C
    96    32    32
Direct
  0.2885548155877078  0.9914569389223741  0.9265025171983143
  0.1977708235676365  0.2642243570618198  0.9026588411065012
  0.3804302654391983  0.7287536367803434  0.9117522778646990
  0.4709288697719916  0.4778669671842401  0.9320953637708875
  0.6522947223733210 -0.0435567501357541  0.9213104483323646
  0.5620453751628003  0.2179392024358955  0.9180542843224044
  0.7422973316871497  0.6887587263900947  0.9185287867934477
  0.8324960495811554  0.4236542125422156  0.8900360711051318
  0.1456026303168657  0.7725352012939271  0.1132552473845453
  0.2367125616757293  0.5099902379980861  0.0758231704034773
  0.4187434402267481 -0.0087088335416635  0.0700413810941085
  0.3265219483997611  0.2479864630916004  0.0868636725999340
  0.5099063162560152  0.7373020252741416  0.0943329433221352
  0.6000441584561260  0.4705210411323461  0.0872856143705316
  0.7806702571275123  0.9348511632553747  0.0995928731119210
  0.6902320211979609  0.2041364545679669  0.0887603519556532
  0.1566600325860278  0.6497697529585317  0.5856903585497374
  0.2511906342999274  0.3472081122833878  0.5652486756957487
  0.4256392218451237  0.9056086492441147  0.5703563030229746
  0.3393840624667558  0.1112397652137413  0.5950823427439607
  0.5194201620948130  0.6147110176606654  0.5881867830564176
  0.6103705945839614  0.3467124395149848  0.5926902705228160
  0.7913936455062557  0.8048336077229331  0.5935779992200373
  0.7002564883327863  0.0800137780753787  0.5929497486229988
  0.2815051857050281  0.0885143956450024  0.4242327705376830
  0.1866536430288266  0.3899148233043679  0.4178085880275834
  0.3685095629551095  0.8562582518030060  0.4085865341812404
  0.4552935201698255  0.6416068258551166  0.4349792143728853
  0.6404906905655819  0.0936392001488646  0.4108789910407211
  0.5505727981660660  0.3580638008254944  0.4066970559670730
  0.7308220780611158  0.8257205993450581  0.4160065753111620
  0.8217481124965518  0.5473323265707378  0.4234922969728899
  0.1867086466080516  0.8899873401323893  0.0849659240251104
  0.2813632492463206  0.5891326104182671  0.0776536123323973
  0.4552120737021932  0.1418122000077364  0.0664886585040414
  0.3686891417262341  0.3555151719135933  0.0927918430920259
  0.5506293160078594  0.8579165442139557  0.0957412155654424
  0.6404051201791815  0.5935521224754556  0.0925888704304009
  0.8219653604811150  0.0474418792799070  0.0834073988776967
  0.7307707682288798  0.3258570506344799  0.0898114404034766
  0.2511301208345280  0.8475682282992721  0.9363687706212711
  0.1566104851036276  0.1495781844879742  0.9170953383458657
  0.3393555770109752  0.6108548885575236  0.9061484312257669
  0.4257019812817260  0.4056378296637755  0.9303292155343748
  0.6103627353041295  0.8469052886089403  0.9117281626859993
  0.5193951094721009  0.1144341210745462  0.9141490614151916
  0.7002127086638643  0.5803337281552141  0.9111232089064896
  0.7914463333051999  0.3048872527039027  0.9128239692254650
  0.2367915192275308  0.0106342420511093  0.4266744602052983
  0.1455876907388865  0.2722813619290244  0.3889117607121529
  0.3264289770617109  0.7474136447940086  0.4131945809912523
  0.4187138745943710  0.4920933485695821  0.4312395781097284
  0.6000589245057965 -0.0289339905067941  0.4162024984059755
  0.5098865113547278  0.2371724088495615  0.4080562048797331
  0.6901792942056947  0.7046740920545367  0.4151821035605259
  0.7804483052416108  0.4349574686973197  0.4071803737988853
  0.1978149218863607  0.7641771694818467  0.5999995617933354
  0.2885391053521967  0.4913340234558746  0.5746554660556006
  0.4708836637052707 -0.0226647269319565  0.5691155430074298
  0.3805128133995178  0.2287555755935114  0.5894160211283568
  0.5620754304526450  0.7179675249939927  0.5850024109806097
  0.6523285680517318  0.4558850395547805  0.5827048024898174
  0.8324736923746084  0.9233692366760521  0.6165253207527474
  0.7423103013239984  0.1883912526553772  0.5876363601884796
  0.2449290475978158  0.0832779327453805  0.9278913892742076
  0.1580488668044024  0.3899336690808000  0.9245142806620519
  0.3395432511995464  0.8476268119214038  0.9142603523190002
  0.4362833147294506  0.6370275407478270  0.9403493194376662
  0.6125562769122675  0.0839342789996121  0.9156369701326750
  0.5230986512360309  0.3512604920905640  0.9077711858179018
  0.7026308783338862  0.8171140747587934  0.9168299259413267
  0.7915396463634171  0.5415147486947817  0.9154607058989758
  0.1864139389154822  0.6530265336040051  0.0956163902659460
  0.2726354835923093  0.3567226178652324  0.0637617287167757
  0.4631004398125074  0.9080122973510704  0.0687514622241573
  0.3660309571370495  0.1187235019608008  0.0875532257756574
  0.5509388248870547  0.6205858280739380  0.0840227806440741
  0.6414382833515329  0.3565028229089071  0.0835576501807770
  0.8201620254135445  0.8070476189098053  0.0829400897485370
  0.7313763302234945  0.0883811900317738  0.0868548120745155
  0.1581095012597613  0.8901206121123375  0.5784277967427226
  0.2449036401151998  0.5828064018703017  0.5744041684177037
  0.4363061489784377  0.1370365048373213  0.5608716466441104
  0.3396617241592043  0.3480822799301422  0.5859869723673343
  0.5231246956799248  0.8514306633021107  0.5947539600128561
  0.6126130124965926  0.5837133206738000  0.5877868640499034
  0.7915271024337664  0.0412317831462101  0.5913354117267016
  0.7026657128949944  0.3166577872214772  0.5873392248145827
  0.2725292352757778  0.8564931290380131  0.4387944753945797
  0.1864134567257059  0.1530860453857271  0.4065816805818996
  0.3661194964860757  0.6193720137541538  0.4134655750098068
  0.4629670518674665  0.4078161937807778  0.4322978180037890
  0.6413602958537022  0.8564919954925784  0.4191042527829166
  0.5509567554290087  0.1208506636525691  0.4191886182276218
  0.7312028812549188  0.5880905583503776  0.4185802864830746
  0.8199846211730921  0.3070645917597581  0.4234852391098248
  0.2013171072550335  0.0165634193971048  0.7390065985038400
  0.3828862561883119  0.4826351623824079  0.7411400441966967
  0.2935581649937634  0.7322381513873565  0.7541520361506766
  0.4766587784673201  0.2507840074931331  0.7376758184389081
  0.5664479919473693 -0.0245691468389237  0.7454896462049948
  0.7462305963498120  0.4427184378902865  0.7399802478702703
  0.6563670476710876  0.7117312773009361  0.7453101427567392
  0.8288930366187812  0.1754516612411111  0.7503635772989626
  0.1492654138789047  0.0205344814494174  0.2458541090074678
  0.3236631397200981  0.4897359772856726  0.2595111837547858
  0.2317854901733695  0.7423359069393899  0.2727643412953005
  0.4141621255844481  0.2531518170843341  0.2485507689830172
  0.5060341127916421 -0.0139054975847346  0.2609766838257036
  0.6862654486973545  0.4554196767944055  0.2573452065015813
  0.5959888293224243  0.7216567203260346  0.2581814668957563
  0.7763477932219099  0.1829328911241274  0.2600894789757466
  0.2012297110329248  0.5164418629751900  0.7637637677463164
  0.2935625479322815  0.2322704362766675  0.7469957253811749
  0.3828192897407679 -0.0174834813387258  0.7601986260513863
  0.5664950291766496  0.4754352567335130  0.7575537111110423
  0.4766990815203925  0.7508704074537822  0.7641290327395762
  0.6564052406632678  0.2114721336450399  0.7582301512039152
  0.7463591352075255 -0.0574767422983736  0.7659863599534223
  0.8288708026911551  0.6752857182643038  0.7557147792438531
  0.1492213233758062  0.5206525412946493  0.2567386998651603
  0.2317256402617284  0.2427782959147019  0.2292463196397473
  0.3236657025586459  0.9898625340874027  0.2415773916453591
  0.5060405989917337  0.4860495661107408  0.2413132786286940
  0.4140502712264137  0.7527629322085169  0.2532298778963019
  0.5959024092880704  0.2218639978370952  0.2449550601461415
  0.6861913618172109 -0.0444948381477267  0.2465255589111861
  0.7763655734923861  0.6829867440520137  0.2462824924251583
  0.2613555457383999  0.9739371583703959  0.9337514716428212
  0.1700973001026440  0.2676741014694145  0.9168827060258987
  0.3530818660003026  0.7290178635247210  0.9155112027281632
  0.4441032039247954  0.5064520540980234  0.9378791075120702
  0.6250198124635706 -0.0380348305781468  0.9204823110283117
  0.5347598566748069  0.2272595645201905  0.9179749909121195
  0.7149998727288591  0.6949289907251498  0.9196984769701495
  0.8055828867583937  0.4229879834317448  0.9116558987668565
  0.1725653895891536  0.7723166805803787  0.0927747765114697
  0.2636511406902928  0.4858191433037496  0.0677484139256542
  0.4457943630056888  0.0132022086040689  0.0639816438075327
  0.3538135273476393  0.2409032421697291  0.0849169092519298
  0.5372343069609788  0.7387926418084569  0.0862885970494630
  0.6273543084606961  0.4737573397064865  0.0835022522028465
  0.8082905024273961  0.9301231618420592  0.0856662647050405
  0.7175383976511168  0.2065947713110706  0.0833298328603521
  0.1701308478380056  0.7678725892608591  0.5863409151869110
  0.2613562099682755  0.4736918197681428  0.5679936625614459
  0.4440624421588715  0.0063135022136088  0.5634932579273940
  0.3531644017693774  0.2292229134436834  0.5854985345307636
  0.5347870962651312  0.7274868656759408  0.5846986381502836
  0.6250565991470746  0.4617904747368675  0.5829857490519221
  0.8055878509125377  0.9227571240606589  0.5945146216684781
  0.7150358732777908  0.1944415717213287  0.5853240203293201
  0.2636745663759860  0.9857566321708954  0.4344421534812790
  0.1725275883188697  0.2722267339722511  0.4099761696537954
  0.3537521050204514  0.7411179708806376  0.4164722876805697
  0.4457776465297061  0.5133757967194491  0.4370256909795621
  0.6273779400317250 -0.0259070713080405  0.4201219663792604
  0.5372214055639076  0.2388516499055744  0.4158119230257516
  0.7174974652909392  0.7066893959686010  0.4207196576048998
  0.8081168074338057  0.4299308234456554  0.4200668985069806

  0.00000000E+00  0.00000000E+00  0.00000000E+00
  0.00000000E+00  0.00000000E+00  0.00000000E+00
  0.00000000E+00  0.00000000E+00  0.00000000E+00
  0.00000000E+00  0.00000000E+00  0.00000000E+00
  0.00000000E+00  0.00000000E+00  0.00000000E+00
  0.00000000E+00  0.00000000E+00  0.00000000E+00
  0.00000000E+00  0.00000000E+00  0.00000000E+00
  0.00000000E+00  0.00000000E+00  0.00000000E+00
  0.00000000E+00  0.00000000E+00  0.00000000E+00
  0.00000000E+00  0.00000000E+00  0.00000000E+00
  0.00000000E+00  0.00000000E+00  0.00000000E+00
  0.00000000E+00  0.00000000E+00  0.00000000E+00
  0.00000000E+00  0.00000000E+00  0.00000000E+00
  0.00000000E+00  0.00000000E+00  0.00000000E+00
  0.00000000E+00  0.00000000E+00  0.00000000E+00
  0.00000000E+00  0.00000000E+00  0.00000000E+00
  0.00000000E+00  0.00000000E+00  0.00000000E+00
  0.00000000E+00  0.00000000E+00  0.00000000E+00
  0.00000000E+00  0.00000000E+00  0.00000000E+00
  0.00000000E+00  0.00000000E+00  0.00000000E+00
  0.00000000E+00  0.00000000E+00  0.00000000E+00
  0.00000000E+00  0.00000000E+00  0.00000000E+00
  0.00000000E+00  0.00000000E+00  0.00000000E+00
  0.00000000E+00  0.00000000E+00  0.00000000E+00
  0.00000000E+00  0.00000000E+00  0.00000000E+00
  0.00000000E+00  0.00000000E+00  0.00000000E+00
  0.00000000E+00  0.00000000E+00  0.00000000E+00
  0.00000000E+00  0.00000000E+00  0.00000000E+00
  0.00000000E+00  0.00000000E+00  0.00000000E+00
  0.00000000E+00  0.00000000E+00  0.00000000E+00
  0.00000000E+00  0.00000000E+00  0.00000000E+00
  0.00000000E+00  0.00000000E+00  0.00000000E+00
  0.00000000E+00  0.00000000E+00  0.00000000E+00
  0.00000000E+00  0.00000000E+00  0.00000000E+00
  0.00000000E+00  0.00000000E+00  0.00000000E+00
  0.00000000E+00  0.00000000E+00  0.00000000E+00
  0.00000000E+00  0.00000000E+00  0.00000000E+00
  0.00000000E+00  0.00000000E+00  0.00000000E+00
  0.00000000E+00  0.00000000E+00  0.00000000E+00
  0.00000000E+00  0.00000000E+00  0.00000000E+00
  0.00000000E+00  0.00000000E+00  0.00000000E+00
  0.00000000E+00  0.00000000E+00  0.00000000E+00
  0.00000000E+00  0.00000000E+00  0.00000000E+00
  0.00000000E+00  0.00000000E+00  0.00000000E+00
  0.00000000E+00  0.00000000E+00  0.00000000E+00
  0.00000000E+00  0.00000000E+00  0.00000000E+00
  0.00000000E+00  0.00000000E+00  0.00000000E+00
  0.00000000E+00  0.00000000E+00  0.00000000E+00
  0.00000000E+00  0.00000000E+00  0.00000000E+00
  0.00000000E+00  0.00000000E+00  0.00000000E+00
  0.00000000E+00  0.00000000E+00  0.00000000E+00
  0.00000000E+00  0.00000000E+00  0.00000000E+00
  0.00000000E+00  0.00000000E+00  0.00000000E+00
  0.00000000E+00  0.00000000E+00  0.00000000E+00
  0.00000000E+00  0.00000000E+00  0.00000000E+00
  0.00000000E+00  0.00000000E+00  0.00000000E+00
  0.00000000E+00  0.00000000E+00  0.00000000E+00
  0.00000000E+00  0.00000000E+00  0.00000000E+00
  0.00000000E+00  0.00000000E+00  0.00000000E+00
  0.00000000E+00  0.00000000E+00  0.00000000E+00
  0.00000000E+00  0.00000000E+00  0.00000000E+00
  0.00000000E+00  0.00000000E+00  0.00000000E+00
  0.00000000E+00  0.00000000E+00  0.00000000E+00
  0.00000000E+00  0.00000000E+00  0.00000000E+00
  0.00000000E+00  0.00000000E+00  0.00000000E+00
  0.00000000E+00  0.00000000E+00  0.00000000E+00
  0.00000000E+00  0.00000000E+00  0.00000000E+00
  0.00000000E+00  0.00000000E+00  0.00000000E+00
  0.00000000E+00  0.00000000E+00  0.00000000E+00
  0.00000000E+00  0.00000000E+00  0.00000000E+00
  0.00000000E+00  0.00000000E+00  0.00000000E+00
  0.00000000E+00  0.00000000E+00  0.00000000E+00
  0.00000000E+00  0.00000000E+00  0.00000000E+00
  0.00000000E+00  0.00000000E+00  0.00000000E+00
  0.00000000E+00  0.00000000E+00  0.00000000E+00
  0.00000000E+00  0.00000000E+00  0.00000000E+00
  0.00000000E+00  0.00000000E+00  0.00000000E+00
  0.00000000E+00  0.00000000E+00  0.00000000E+00
  0.00000000E+00  0.00000000E+00  0.00000000E+00
  0.00000000E+00  0.00000000E+00  0.00000000E+00
  0.00000000E+00  0.00000000E+00  0.00000000E+00
  0.00000000E+00  0.00000000E+00  0.00000000E+00
  0.00000000E+00  0.00000000E+00  0.00000000E+00
  0.00000000E+00  0.00000000E+00  0.00000000E+00
  0.00000000E+00  0.00000000E+00  0.00000000E+00
  0.00000000E+00  0.00000000E+00  0.00000000E+00
  0.00000000E+00  0.00000000E+00  0.00000000E+00
  0.00000000E+00  0.00000000E+00  0.00000000E+00
  0.00000000E+00  0.00000000E+00  0.00000000E+00
  0.00000000E+00  0.00000000E+00  0.00000000E+00
  0.00000000E+00  0.00000000E+00  0.00000000E+00
  0.00000000E+00  0.00000000E+00  0.00000000E+00
  0.00000000E+00  0.00000000E+00  0.00000000E+00
  0.00000000E+00  0.00000000E+00  0.00000000E+00
  0.00000000E+00  0.00000000E+00  0.00000000E+00
  0.00000000E+00  0.00000000E+00  0.00000000E+00
  0.00000000E+00  0.00000000E+00  0.00000000E+00
  0.00000000E+00  0.00000000E+00  0.00000000E+00
  0.00000000E+00  0.00000000E+00  0.00000000E+00
  0.00000000E+00  0.00000000E+00  0.00000000E+00
  0.00000000E+00  0.00000000E+00  0.00000000E+00
  0.00000000E+00  0.00000000E+00  0.00000000E+00
  0.00000000E+00  0.00000000E+00  0.00000000E+00
  0.00000000E+00  0.00000000E+00  0.00000000E+00
  0.00000000E+00  0.00000000E+00  0.00000000E+00
  0.00000000E+00  0.00000000E+00  0.00000000E+00
  0.00000000E+00  0.00000000E+00  0.00000000E+00
  0.00000000E+00  0.00000000E+00  0.00000000E+00
  0.00000000E+00  0.00000000E+00  0.00000000E+00
  0.00000000E+00  0.00000000E+00  0.00000000E+00
  0.00000000E+00  0.00000000E+00  0.00000000E+00
  0.00000000E+00  0.00000000E+00  0.00000000E+00
  0.00000000E+00  0.00000000E+00  0.00000000E+00
  0.00000000E+00  0.00000000E+00  0.00000000E+00
  0.00000000E+00  0.00000000E+00  0.00000000E+00
  0.00000000E+00  0.00000000E+00  0.00000000E+00
  0.00000000E+00  0.00000000E+00  0.00000000E+00
  0.00000000E+00  0.00000000E+00  0.00000000E+00
  0.00000000E+00  0.00000000E+00  0.00000000E+00
  0.00000000E+00  0.00000000E+00  0.00000000E+00
  0.00000000E+00  0.00000000E+00  0.00000000E+00
  0.00000000E+00  0.00000000E+00  0.00000000E+00
  0.00000000E+00  0.00000000E+00  0.00000000E+00
  0.00000000E+00  0.00000000E+00  0.00000000E+00
  0.00000000E+00  0.00000000E+00  0.00000000E+00
  0.00000000E+00  0.00000000E+00  0.00000000E+00
  0.00000000E+00  0.00000000E+00  0.00000000E+00
  0.00000000E+00  0.00000000E+00  0.00000000E+00
  0.00000000E+00  0.00000000E+00  0.00000000E+00
  0.00000000E+00  0.00000000E+00  0.00000000E+00
  0.00000000E+00  0.00000000E+00  0.00000000E+00
  0.00000000E+00  0.00000000E+00  0.00000000E+00
  0.00000000E+00  0.00000000E+00  0.00000000E+00
  0.00000000E+00  0.00000000E+00  0.00000000E+00
  0.00000000E+00  0.00000000E+00  0.00000000E+00
  0.00000000E+00  0.00000000E+00  0.00000000E+00
  0.00000000E+00  0.00000000E+00  0.00000000E+00
  0.00000000E+00  0.00000000E+00  0.00000000E+00
  0.00000000E+00  0.00000000E+00  0.00000000E+00
  0.00000000E+00  0.00000000E+00  0.00000000E+00
  0.00000000E+00  0.00000000E+00  0.00000000E+00
  0.00000000E+00  0.00000000E+00  0.00000000E+00
  0.00000000E+00  0.00000000E+00  0.00000000E+00
  0.00000000E+00  0.00000000E+00  0.00000000E+00
  0.00000000E+00  0.00000000E+00  0.00000000E+00
  0.00000000E+00  0.00000000E+00  0.00000000E+00
  0.00000000E+00  0.00000000E+00  0.00000000E+00
  0.00000000E+00  0.00000000E+00  0.00000000E+00
  0.00000000E+00  0.00000000E+00  0.00000000E+00
  0.00000000E+00  0.00000000E+00  0.00000000E+00
  0.00000000E+00  0.00000000E+00  0.00000000E+00
  0.00000000E+00  0.00000000E+00  0.00000000E+00
  0.00000000E+00  0.00000000E+00  0.00000000E+00
  0.00000000E+00  0.00000000E+00  0.00000000E+00
  0.00000000E+00  0.00000000E+00  0.00000000E+00
  0.00000000E+00  0.00000000E+00  0.00000000E+00
  0.00000000E+00  0.00000000E+00  0.00000000E+00
  0.00000000E+00  0.00000000E+00  0.00000000E+00
  0.00000000E+00  0.00000000E+00  0.00000000E+00
  0.00000000E+00  0.00000000E+00  0.00000000E+00
